INCAR created by Atomic Simulation Environment
 ISMEAR = 1
 LCHARG = .FALSE.
 LWAVE = .FALSE.
 ENCUT = 400
 SIGMA = 0.1
