Cu  O                                   
   1.00000000000000     
     5.1420805100000004    0.0000000000000000    0.0000000000000000
     2.5710402600000002    4.4531723500000000    0.0000000000000000
     0.0000000000000000    0.0000000000000000   24.1984911599999997
   Cu   O 
    12     1
Direct
  0.1666666699999979  0.1666666699999979  0.4148668500000028
  0.6669547500000022  0.1660905000000028  0.4140927099999985
  0.1660905000000028  0.6669547500000022  0.4140927099999985
  0.6669547500000022  0.6669547500000022  0.4140927099999985
  0.8342581300000020  0.3328709399999994  0.4993538900000019
  0.3328709399999994  0.3328709399999994  0.4993538900000019
  0.8333333300000021  0.8333333300000021  0.5019764500000008
  0.3328709399999994  0.8342581300000020  0.4993538900000019
  0.9936341299999967  0.9936341299999967  0.5882249200000018
  0.5127317299999987  0.9936341299999967  0.5882249200000018
  0.9936341299999967  0.5127317299999987  0.5882249200000018
  0.5000000000000000  0.5000000000000000  0.5813281699999990
  0.1666666699999979  0.1666666699999979  0.6331549300000034
 
  0.00000000E+00  0.00000000E+00  0.00000000E+00
  0.00000000E+00  0.00000000E+00  0.00000000E+00
  0.00000000E+00  0.00000000E+00  0.00000000E+00
  0.00000000E+00  0.00000000E+00  0.00000000E+00
  0.00000000E+00  0.00000000E+00  0.00000000E+00
  0.00000000E+00  0.00000000E+00  0.00000000E+00
  0.00000000E+00  0.00000000E+00  0.00000000E+00
  0.00000000E+00  0.00000000E+00  0.00000000E+00
  0.00000000E+00  0.00000000E+00  0.00000000E+00
  0.00000000E+00  0.00000000E+00  0.00000000E+00
  0.00000000E+00  0.00000000E+00  0.00000000E+00
  0.00000000E+00  0.00000000E+00  0.00000000E+00
  0.00000000E+00  0.00000000E+00  0.00000000E+00
