Cu  O 
 1.0000000000000000
     5.1420805100000004    0.0000000000000000    0.0000000000000000
     2.5710402600000002    4.4531723500000000    0.0000000000000000
     0.0000000000000000    0.0000000000000000   24.1984911599999997
  12   1
Cartesian
  1.2855201540437360  0.7421954065105745 10.0391518023020456
  3.8565603833304527  0.7396296221976750 10.0204187823554420
  2.5688182367943901  2.9700644514011625 10.0204187823554420
  5.1443025348751581  2.9700644514011625 10.0204187823554420
  5.1456470587060918  1.4823316661265091 12.0836106928766132
  2.5674737610434240  1.4823316661265091 12.0836106928766132
  6.4276006159562646  3.7109769434894253 12.1470726878531821
  3.8565604123816937  3.7150952372787058 12.0836106928766132
 -0.0491007241161199 -0.0283483162676945 14.2341555267117084
  2.6201409276316570 -0.0283483162676945 14.2341555267117084
  1.2855201043532563  2.2832827630036658 14.2341555267117084
  3.8565603850000003  2.2265861750000000 14.0672645828039773
  1.2855201540437360  0.7421954065105745 15.3213939765154183
