Ag 
 1.0000000000000000
     4.3626666666666676    0.0000000000000000    0.0000000000000000
     0.0000000000000000    4.3626666666666676    0.0000000000000000
     0.0000000000000000    0.0000000000000000    4.3626666666666676
   4
Cartesian
  0.0000000000000000  0.0000000000000000  0.0000000000000000
  0.0000000000000000  2.1813333333333338  2.1813333333333338
  2.1813333333333338  0.0000000000000000  2.1813333333333338
  2.1813333333333338  2.1813333333333338  0.0000000000000000
