Ag  O                                   
   1.00000000000000     
     5.8647436400000004    0.0000000000000000    0.0000000000000000
     2.9323718200000002    5.0790169799999996    0.0000000000000000
     0.0000000000000000    0.0000000000000000   24.7885431300000008
   Ag   O 
    12     1
Direct
  0.1666666699999979  0.1666666699999979  0.4052788899999982
  0.6668559700000003  0.1662880499999986  0.4036802099999974
  0.1662880499999986  0.6668559700000003  0.4036802099999974
  0.6668559700000003  0.6668559700000003  0.4036802099999974
  0.8336702200000019  0.3331648899999990  0.4995925500000027
  0.3331648899999990  0.3331648899999990  0.4995925500000027
  0.8333333300000021  0.8333333300000021  0.5014494300000010
  0.3331648899999990  0.8336702200000019  0.4995925500000027
  0.9924585300000004  0.9924585300000004  0.5970344500000024
  0.5150829500000000  0.9924585300000004  0.5970344500000024
  0.9924585300000004  0.5150829500000000  0.5970344500000024
  0.5000000000000000  0.5000000000000000  0.5927510100000006
  0.1666666699999979  0.1666666699999979  0.6445963000000035
 
  0.00000000E+00  0.00000000E+00  0.00000000E+00
  0.00000000E+00  0.00000000E+00  0.00000000E+00
  0.00000000E+00  0.00000000E+00  0.00000000E+00
  0.00000000E+00  0.00000000E+00  0.00000000E+00
  0.00000000E+00  0.00000000E+00  0.00000000E+00
  0.00000000E+00  0.00000000E+00  0.00000000E+00
  0.00000000E+00  0.00000000E+00  0.00000000E+00
  0.00000000E+00  0.00000000E+00  0.00000000E+00
  0.00000000E+00  0.00000000E+00  0.00000000E+00
  0.00000000E+00  0.00000000E+00  0.00000000E+00
  0.00000000E+00  0.00000000E+00  0.00000000E+00
  0.00000000E+00  0.00000000E+00  0.00000000E+00
  0.00000000E+00  0.00000000E+00  0.00000000E+00
