Ag  O 
 1.0000000000000000
     5.8647436400000004    0.0000000000000000    0.0000000000000000
     2.9323718200000002    5.0790169799999996    0.0000000000000000
     0.0000000000000000    0.0000000000000000   24.7885431300000008
  12   1
Cartesian
  1.4661859393237182  0.8465028469300565 10.0462732444435261
  4.3985577006762817  0.8445798295210889 10.0066442963124569
  2.9307064380722676  3.3869727948443700 10.0066442963124569
  5.8664089632802963  3.3869727948443700 10.0066442963124569
  5.8662254554518016  1.6921501334498321 12.3841714731016825
  2.9308900045481994  1.6921501334498321 12.3841714731016825
  7.3309295206762819  4.2325141330699427 12.4302008230689154
  4.3985577300000003  4.2342252031003351 12.3841714731016825
 -0.0663431823281262 -0.0383032541841606 14.7996142139208295
  2.9987150609755631 -0.0383032541841606 14.7996142139208295
  1.4661859393237184  2.6161150491584908 14.7996142139208295
  4.3985577300000003  2.5395084899999998 14.6934339767360616
  1.4661859393237182  0.8465028469300565 15.9786031839884206
