Ag 
 1.0000000000000000
     4.2263333333333337    0.0000000000000000    0.0000000000000000
     0.0000000000000000    4.2263333333333337    0.0000000000000000
     0.0000000000000000    0.0000000000000000    4.2263333333333337
   4
Cartesian
  0.0000000000000000  0.0000000000000000  0.0000000000000000
  0.0000000000000000  2.1131666666666669  2.1131666666666669
  2.1131666666666669  0.0000000000000000  2.1131666666666669
  2.1131666666666669  2.1131666666666669  0.0000000000000000
