 $CONTRL SCFTYP= RHF RUNTYP=SADPOINT DFTTYP=B3LYP 
       ICHARG=0 MULT=1 COORD=CART $END
 $BASIS GBASIS=N31 NGAUSS=6 NDFUNC=1 $END
 $STATPT HESS=CALC NSTEP=100 $END
 $FORCE METHOD=SEMINUM $END
 $DATA
C2H3OF
C1 1
C 6 0.00000000 0.00000000 0.00000000
C 6 -1.03385029 0.69834541 -0.48894505
O 8 -2.28820920 0.22706540 -0.49782734
H 1 -0.79840230 1.78549281 -0.47963874
F 9 1.16662616 0.73024756 -0.13845377
H 1 -1.01193279 -0.63615960 0.10626856
H 1 0.09052872 -0.95059654 -0.54188493
 $END
