Ag 
 1.0000000000000000
     3.9536666666666669    0.0000000000000000    0.0000000000000000
     0.0000000000000000    3.9536666666666669    0.0000000000000000
     0.0000000000000000    0.0000000000000000    3.9536666666666669
   4
Cartesian
  0.0000000000000000  0.0000000000000000  0.0000000000000000
  0.0000000000000000  1.9768333333333334  1.9768333333333334
  1.9768333333333334  0.0000000000000000  1.9768333333333334
  1.9768333333333334  1.9768333333333334  0.0000000000000000
