Cu  O                                   
   1.00000000000000     
     5.1420805127885743    0.0000000000000000    0.0000000000000000
     2.5710402563942871    4.4531723523798172    0.0000000000000000
     0.0000000000000000    0.0000000000000000   24.1984911575469610
   Cu   O 
    12     1
Direct
  0.1666666666666643  0.1666666666666643  0.4148668457912938
  0.6669547488260960  0.1660905023478009  0.4140927074773650
  0.1660905023478009  0.6669547488260960  0.4140927074773650
  0.6669547488260960  0.6669547488260960  0.4140927074773650
  0.8342581281003826  0.3328709359498123  0.4993538929770696
  0.3328709359498123  0.3328709359498123  0.4993538929770696
  0.8333333333333357  0.8333333333333357  0.5019764479085675
  0.3328709359498123  0.8342581281003826  0.4993538929770696
 -0.0063658655282046 -0.0063658655282046  0.5882249238415329
  0.5127317310564093 -0.0063658655282046  0.5882249238415329
 -0.0063658655282046  0.5127317310564093  0.5882249238415329
  0.5000000000000000  0.5000000000000000  0.5813281671469310
  0.1666666666666643  0.1666666666666643  0.6331549289019139
 
  0.00000000E+00  0.00000000E+00  0.00000000E+00
  0.00000000E+00  0.00000000E+00  0.00000000E+00
  0.00000000E+00  0.00000000E+00  0.00000000E+00
  0.00000000E+00  0.00000000E+00  0.00000000E+00
  0.00000000E+00  0.00000000E+00  0.00000000E+00
  0.00000000E+00  0.00000000E+00  0.00000000E+00
  0.00000000E+00  0.00000000E+00  0.00000000E+00
  0.00000000E+00  0.00000000E+00  0.00000000E+00
  0.00000000E+00  0.00000000E+00  0.00000000E+00
  0.00000000E+00  0.00000000E+00  0.00000000E+00
  0.00000000E+00  0.00000000E+00  0.00000000E+00
  0.00000000E+00  0.00000000E+00  0.00000000E+00
  0.00000000E+00  0.00000000E+00  0.00000000E+00
