Cu  O 
 1.0000000000000000
     5.1420805127885743    0.0000000000000000    0.0000000000000000
     2.5710402563942871    4.4531723523798172    0.0000000000000000
     0.0000000000000000    0.0000000000000000   24.1984911575469610
  12   1
Cartesian
  1.2855201281971436  0.7421953920633029 10.0000000000000000
  3.8565603845914307  0.7421953920633029 10.0000000000000000
  2.5710402563942871  2.9687815682532115 10.0000000000000000
  5.1420805127885743  2.9687815682532115 10.0000000000000000
 -0.0000000000000000  1.4843907841266057 12.0992455787734805
  2.5710402563942871  1.4843907841266057 12.0992455787734805
  1.2855201281971433  3.7109769603165139 12.0992455787734805
  3.8565603845914307  3.7109769603165139 12.0992455787734805
  0.0000000000000000  0.0000000000000000 14.1984911575469592
  2.5710402563942871  0.0000000000000000 14.1984911575469592
  1.2855201281971436  2.2265861761899086 14.1984911575469592
  3.8565603845914307  2.2265861761899086 14.1984911575469592
  1.2855201281971436  0.7421953920633029 15.3984911575469585
