INCAR created by Atomic Simulation Environment
 ISMEAR = 0
 LCHARG = .FALSE.
 ENCUT = 500
 SIGMA = 0.01
 LWAVE = .FALSE.
