 $CONTRL SCFTYP=RHF DFTTYP=B3LYP RUNTYP=ENERGY 
       ISPHER=1 MULT=1 COORD=ZMT NZVAR=15 $END
 $BASIS GBASIS=N31 NGAUSS=6 NDFUNC=1 $END
 $STATPT IFREEZ(1)=9 $END
 $DATA
Title Single Point Energy Calculation of Acetaldehyde
C1
C
C      1   1.5086892
O      2   1.2107245  1  124.7161
H      2   1.1145804  1  114.7739  3  180.0000  0
H      1   1.0926781  2  110.5176  3  -60.      0
H      1   1.0983769  2  109.8265  3  121.4889  0
H      1   1.0983769  2  109.8265  3 -121.4889  0
 $END
