Au 
 1.0000000000000000
     4.0800000000000001    0.0000000000000000    0.0000000000000000
     0.0000000000000000    4.0800000000000001    0.0000000000000000
     0.0000000000000000    0.0000000000000000    4.0800000000000001
   4
Cartesian
  0.0000000000000000  0.0000000000000000  0.0000000000000000
  0.0000000000000000  2.0400000000000000  2.0400000000000000
  2.0400000000000000  0.0000000000000000  2.0400000000000000
  2.0400000000000000  2.0400000000000000  0.0000000000000000
