Au 
 1.0000000000000000
     3.8080000000000003    0.0000000000000000    0.0000000000000000
     0.0000000000000000    3.8080000000000003    0.0000000000000000
     0.0000000000000000    0.0000000000000000    3.8080000000000003
   4
Cartesian
  0.0000000000000000  0.0000000000000000  0.0000000000000000
  0.0000000000000000  1.9040000000000001  1.9040000000000001
  1.9040000000000001  0.0000000000000000  1.9040000000000001
  1.9040000000000001  1.9040000000000001  0.0000000000000000
