 $CONTRL SCFTYP=RHF MPLEVL=2 RUNTYP=ENERGY 
       ICHARG=0 MULT=1 COORD=CART $END
 $BASIS GBASIS=N31 NGAUSS=6 NDFUNC=1 $END
 $DATA
C2H3OF
C1 1
C 6 0.00000000 0.00000000 0.00000000
C 6 1.21601500 0.91297200 -0.00084900
O 8 2.34938000 0.49317100 0.00654000
H 1 0.97549700 1.99900900 -0.01011300
F 9 -1.15637600 0.75908400 0.00599100
H 1 0.01944900 -0.63789300 -0.89365700
H 1 0.02529200 -0.64499400 0.88815100
 $END
