 $CONTRL SCFTYP=RHF RUNTYP=HESSIAN DFTTYP=B3LYP 
       ISPHER=1 COORD=CART $END
 $BASIS GBASIS=N31 NGAUSS=6 NDFUNC=1 $END
 $FORCE METHOD=SEMINUM $END
 $DATA
C2H3OF
C1 1
C 6 0.00000000 0.00000000 0.00000000
C 6 -1.22025786 0.90729393 -0.00079224
O 8 -2.35165322 0.48221531 -0.00141524
H 1 -0.98480446 1.99444052 -0.00075056
F 9 1.15282464 0.76446494 0.00060561
H 1 -0.01699910 -0.63789769 0.89680662
H 1 -0.01595215 -0.63805569 -0.89671345
 $END
