 $CONTRL SCFTYP=RHF RUNTYP=HESSIAN DFTTYP=B3LYP 
       ISPHER=1 COORD=CART $END
 $BASIS GBASIS=N31 NGAUSS=6 NDFUNC=1 $END
 $FORCE METHOD=SEMINUM $END
 $DATA
Title Vibrational Spectrum Calculation for Acetaldehyde
C1
C           6.0   0.4938086103  -0.5461969326  -0.0002398616
C           6.0  -0.7264497450   0.3610970753  -0.0001827092
O           8.0  -1.8578407918  -0.0639822026  -0.0081942504
H           1.0  -0.4910017525   1.4482444748   0.0091235963
F           9.0   1.6466367452   0.2182674771  -0.0056248484
H           1.0   0.4768113196  -1.1840948988   0.8934642995
H           1.0   0.4720410694  -1.1913804511  -0.8883462252
 $END


