Ag 
 1.0000000000000000
     3.6810000000000000    0.0000000000000000    0.0000000000000000
     0.0000000000000000    3.6810000000000000    0.0000000000000000
     0.0000000000000000    0.0000000000000000    3.6810000000000000
   4
Cartesian
  0.0000000000000000  0.0000000000000000  0.0000000000000000
  0.0000000000000000  1.8405000000000000  1.8405000000000000
  1.8405000000000000  0.0000000000000000  1.8405000000000000
  1.8405000000000000  1.8405000000000000  0.0000000000000000
