 $CONTRL SCFTYP= RHF RUNTYP=SADPOINT DFTTYP=B3LYP 
       ICHARG=0 MULT=1 COORD=CART $END
 $BASIS GBASIS=N31 NGAUSS=6 NDFUNC=1 $END
 $STATPT HESS=CALC NSTEP=100 $END
 $FORCE METHOD=SEMINUM $END
 $DATA
C2H4O
C1 1
C 6 0.00000000 0.00000000 0.00000000
C 6 -1.29085602 0.54193240 0.00001049
O 8 -2.36184357 -0.14062579 -0.00000470
H 1 -1.32975640 1.65583381 0.00003173
H 1 -1.01036981 -1.08131030 -0.24478743
H 1 0.60846530 0.48702538 -0.77403214
H 1 0.49018242 0.20473425 0.96140699
 $END
