Cu 
 1.0000000000000000
     3.7303333333333333    0.0000000000000000    0.0000000000000000
     0.0000000000000000    3.7303333333333333    0.0000000000000000
     0.0000000000000000    0.0000000000000000    3.7303333333333333
   4
Cartesian
  0.0000000000000000  0.0000000000000000  0.0000000000000000
  0.0000000000000000  1.8651666666666666  1.8651666666666666
  1.8651666666666666  0.0000000000000000  1.8651666666666666
  1.8651666666666666  1.8651666666666666  0.0000000000000000
