 $CONTRL SCFTYP= RHF RUNTYP=OPTIMIZE DFTTYP=B3LYP
       ICHARG=0 MULT=1 COORD=CART $END
 $STATPT METHOD=QA OPTTOL=0.0001 HESS=GUESS NSTEP=50 $END
 $BASIS GBASIS=N31 NGAUSS=6 NDFUNC=1 $END
 $DATA
Title Geometry Optimization of Acetaldehyde
C1 1
C 6 0.00000000 0.00000000 0.00000000
C 6 1.51372000 -0.00072400 -0.00000000
O 8 2.18356600 1.00553800 0.00000000
H 1 2.01855800 -0.99428200 0.00000000
H 1 -0.39900900 1.04007700 0.00000000
H 1 -0.38138900 -0.52248600 -0.90666800
H 1 -0.38138900 -0.52248600 0.90666800
 $END
