Ag 
 1.0000000000000000
     4.0899999999999999    0.0000000000000000    0.0000000000000000
     0.0000000000000000    4.0899999999999999    0.0000000000000000
     0.0000000000000000    0.0000000000000000    4.0899999999999999
   4
Cartesian
  0.0000000000000000  0.0000000000000000  0.0000000000000000
  0.0000000000000000  2.0449999999999999  2.0449999999999999
  2.0449999999999999  0.0000000000000000  2.0449999999999999
  2.0449999999999999  2.0449999999999999  0.0000000000000000
