Au 
 1.0000000000000000
     4.3520000000000003    0.0000000000000000    0.0000000000000000
     0.0000000000000000    4.3520000000000003    0.0000000000000000
     0.0000000000000000    0.0000000000000000    4.3520000000000003
   4
Cartesian
  0.0000000000000000  0.0000000000000000  0.0000000000000000
  0.0000000000000000  2.1760000000000002  2.1760000000000002
  2.1760000000000002  0.0000000000000000  2.1760000000000002
  2.1760000000000002  2.1760000000000002  0.0000000000000000
