Cu 
 1.0000000000000000
     3.9710000000000001    0.0000000000000000    0.0000000000000000
     0.0000000000000000    3.9710000000000001    0.0000000000000000
     0.0000000000000000    0.0000000000000000    3.9710000000000001
   4
Cartesian
  0.0000000000000000  0.0000000000000000  0.0000000000000000
  0.0000000000000000  1.9855000000000000  1.9855000000000000
  1.9855000000000000  0.0000000000000000  1.9855000000000000
  1.9855000000000000  1.9855000000000000  0.0000000000000000
