Cu 
 1.0000000000000000
     3.2490000000000001    0.0000000000000000    0.0000000000000000
     0.0000000000000000    3.2490000000000001    0.0000000000000000
     0.0000000000000000    0.0000000000000000    3.2490000000000001
   4
Cartesian
  0.0000000000000000  0.0000000000000000  0.0000000000000000
  0.0000000000000000  1.6245000000000001  1.6245000000000001
  1.6245000000000001  0.0000000000000000  1.6245000000000001
  1.6245000000000001  1.6245000000000001  0.0000000000000000
