 $CONTRL SCFTYP=RHF MPLEVL=2 RUNTYP=ENERGY 
       ICHARG=0 MULT=1 COORD=CART $END
 $BASIS GBASIS=N31 NGAUSS=6 NDFUNC=1 $END
 $DATA
C2H3OF
C1 1
C 6 0.00000000 0.00000000 0.00000000
C 6 1.03594561 0.97295056 -0.04147930
O 8 2.14718721 0.36023491 -0.24264331
H 1 1.01436261 2.06066763 0.05010898
F 9 -1.28769228 0.34410541 -0.31358854
H 1 0.03751390 -0.58487706 0.92734428
H 1 1.32363666 -0.60348078 -0.46513599
 $END
