Ag                                      
   1.00000000000000     
     4.0899999999999999    0.0000000000000000    0.0000000000000000
     0.0000000000000000    4.0899999999999999    0.0000000000000000
     0.0000000000000000    0.0000000000000000    4.0899999999999999
   Ag
     4
Direct
  0.0000000000000000  0.0000000000000000  0.0000000000000000
  0.0000000000000000  0.5000000000000000  0.5000000000000000
  0.5000000000000000  0.0000000000000000  0.5000000000000000
  0.5000000000000000  0.5000000000000000  0.0000000000000000
 
  0.00000000E+00  0.00000000E+00  0.00000000E+00
  0.00000000E+00  0.00000000E+00  0.00000000E+00
  0.00000000E+00  0.00000000E+00  0.00000000E+00
  0.00000000E+00  0.00000000E+00  0.00000000E+00
