Ag  O                                   
   1.00000000000000     
     5.8647436431612263    0.0000000000000000    0.0000000000000000
     2.9323718215806132    5.0790169816609199    0.0000000000000000
     0.0000000000000000    0.0000000000000000   24.7885431326587558
   Ag   O 
    12     1
Direct
  0.1666666666666643  0.1666666666666643  0.4052788867342352
  0.6668559737449493  0.1662880525100942  0.4036802139706639
  0.1662880525100942  0.6668559737449493  0.4036802139706639
  0.6668559737449493  0.6668559737449493  0.4036802139706639
  0.8336702220299694  0.3331648889850188  0.4995925501132622
  0.3331648889850188  0.3331648889850188  0.4995925501132622
  0.8333333333333357  0.8333333333333357  0.5014494323342595
  0.3331648889850188  0.8336702220299694  0.4995925501132622
 -0.0075414745767322 -0.0075414745767322  0.5970344530887921
  0.5150829491534645 -0.0075414745767322  0.5970344530887921
 -0.0075414745767322  0.5150829491534645  0.5970344530887921
  0.5000000000000000  0.5000000000000000  0.5927510140936930
  0.1666666666666643  0.1666666666666643  0.6445963048777489
 
  0.00000000E+00  0.00000000E+00  0.00000000E+00
  0.00000000E+00  0.00000000E+00  0.00000000E+00
  0.00000000E+00  0.00000000E+00  0.00000000E+00
  0.00000000E+00  0.00000000E+00  0.00000000E+00
  0.00000000E+00  0.00000000E+00  0.00000000E+00
  0.00000000E+00  0.00000000E+00  0.00000000E+00
  0.00000000E+00  0.00000000E+00  0.00000000E+00
  0.00000000E+00  0.00000000E+00  0.00000000E+00
  0.00000000E+00  0.00000000E+00  0.00000000E+00
  0.00000000E+00  0.00000000E+00  0.00000000E+00
  0.00000000E+00  0.00000000E+00  0.00000000E+00
  0.00000000E+00  0.00000000E+00  0.00000000E+00
  0.00000000E+00  0.00000000E+00  0.00000000E+00
