Pd                                      
   1.00000000000000     
     4.2790000000000008    0.0000000000000000    0.0000000000000000
     0.0000000000000000    4.2790000000000008    0.0000000000000000
     0.0000000000000000    0.0000000000000000    4.2790000000000008
   Pd
     4
Direct
  0.0000000000000000  0.0000000000000000  0.0000000000000000
  0.0000000000000000  0.5000000000000000  0.5000000000000000
  0.5000000000000000  0.0000000000000000  0.5000000000000000
  0.5000000000000000  0.5000000000000000  0.0000000000000000
 
  0.00000000E+00  0.00000000E+00  0.00000000E+00
  0.00000000E+00  0.00000000E+00  0.00000000E+00
  0.00000000E+00  0.00000000E+00  0.00000000E+00
  0.00000000E+00  0.00000000E+00  0.00000000E+00
