Pd 
 1.0000000000000000
     4.2790000000000008    0.0000000000000000    0.0000000000000000
     0.0000000000000000    4.2790000000000008    0.0000000000000000
     0.0000000000000000    0.0000000000000000    4.2790000000000008
   4
Cartesian
  0.0000000000000000  0.0000000000000000  0.0000000000000000
  0.0000000000000000  2.1395000000000004  2.1395000000000004
  2.1395000000000004  0.0000000000000000  2.1395000000000004
  2.1395000000000004  2.1395000000000004  0.0000000000000000
