Cu                                      
   1.00000000000000     
     5.1420805100000004    0.0000000000000000    0.0000000000000000
     2.5710402600000002    4.4531723500000000    0.0000000000000000
     0.0000000000000000    0.0000000000000000   24.1984911599999997
   Cu
    12
Direct
  0.1666666699999979  0.1666666699999979  0.4146924400000032
  0.6666666699999979  0.1666666699999979  0.4146924400000032
  0.1666666699999979  0.6666666699999979  0.4146924400000032
  0.6666666699999979  0.6666666699999979  0.4146924400000032
  0.8333333300000021  0.3333333300000021  0.5000000000000000
  0.3333333300000021  0.3333333300000021  0.5000000000000000
  0.8333333300000021  0.8333333300000021  0.5000000000000000
  0.3333333300000021  0.8333333300000021  0.5000000000000000
  0.0000000000000000  0.0000000000000000  0.5853075599999968
  0.5000000000000000  0.0000000000000000  0.5853075599999968
  0.0000000000000000  0.5000000000000000  0.5853075599999968
  0.5000000000000000  0.5000000000000000  0.5853075599999968
 
  0.00000000E+00  0.00000000E+00  0.00000000E+00
  0.00000000E+00  0.00000000E+00  0.00000000E+00
  0.00000000E+00  0.00000000E+00  0.00000000E+00
  0.00000000E+00  0.00000000E+00  0.00000000E+00
  0.00000000E+00  0.00000000E+00  0.00000000E+00
  0.00000000E+00  0.00000000E+00  0.00000000E+00
  0.00000000E+00  0.00000000E+00  0.00000000E+00
  0.00000000E+00  0.00000000E+00  0.00000000E+00
  0.00000000E+00  0.00000000E+00  0.00000000E+00
  0.00000000E+00  0.00000000E+00  0.00000000E+00
  0.00000000E+00  0.00000000E+00  0.00000000E+00
  0.00000000E+00  0.00000000E+00  0.00000000E+00
