Cu 
 1.0000000000000000
     5.1420805100000004    0.0000000000000000    0.0000000000000000
     2.5710402600000002    4.4531723500000000    0.0000000000000000
     0.0000000000000000    0.0000000000000000   24.1984911599999997
  12
Cartesian
  1.2855201540437360  0.7421954065105745 10.0349313434588296
  3.8565604090437362  0.7421954065105745 10.0349313434588296
  2.5710402840437361  2.9687815815105747 10.0349313434588296
  5.1420805390437367  2.9687815815105747 10.0349313434588296
  5.1420804859562645  1.4843907684894255 12.0992455799999998
  2.5710402309562643  1.4843907684894255 12.0992455799999998
  6.4276006159562646  3.7109769434894253 12.0992455799999998
  3.8565603609562644  3.7109769434894253 12.0992455799999998
  0.0000000000000000  0.0000000000000000 14.1635598165411682
  2.5710402550000002  0.0000000000000000 14.1635598165411682
  1.2855201300000001  2.2265861750000000 14.1635598165411682
  3.8565603850000003  2.2265861750000000 14.1635598165411682
