 $CONTRL SCFTYP= RHF RUNTYP=HESSIAN DFTTYP=B3LYP 
       ISPHER=1 MULT=1 COORD=CART $END
 $SCF DIRSCF=.TRUE. $END
 $BASIS GBASIS=N31 NGAUSS=6 NDFUNC=1 $END
 $FORCE METHOD=SEMINUM $END
 $DATA
C2H3OF
C1 1
C 6 0.00000000 0.00000000 0.00000000
C 6 1.08876021 -0.76739403 0.00000000
O 8 2.38275866 -0.32762973 0.00000000
H 1 2.39427669 0.64355738 0.00000000
H 1 1.02257074 -1.84997063 0.00000000
F 9 -1.23673154 -0.55285390 0.00000000
H 1 -0.01384716 1.08690269 0.00000000
 $END
