 $CONTRL SCFTYP=RHF RUNTYP=OPTIMIZE DFTTYP=B3LYP 
       ICHARG=0 MULT=1 COORD=CART $END
 $STATPT METHOD=NR OPTTOL=0.0001 HESS=GUESS NSTEP=100 $END
 $BASIS GBASIS=N31 NGAUSS=6 NDFUNC=1 $END
 $DATA
Title Transition State Optimization for C2H4O
C1 1
C 6 0.00000000 0.00000000 0.00000000
C 6 1.51873190 -0.05482787 0.00000000
O 8 1.70514664 0.76210734 0.00000000
H 1 2.18287289 -0.91912917 0.00000000
H 1 0.56277642 1.36871230 -0.24476387
H 1 -0.38692851 -0.64703008 -0.78723465
H 1 -0.37577739 -0.33814405 0.96568626
 $END
