Ag 
 1.0000000000000000
     3.8173333333333335    0.0000000000000000    0.0000000000000000
     0.0000000000000000    3.8173333333333335    0.0000000000000000
     0.0000000000000000    0.0000000000000000    3.8173333333333335
   4
Cartesian
  0.0000000000000000  0.0000000000000000  0.0000000000000000
  0.0000000000000000  1.9086666666666667  1.9086666666666667
  1.9086666666666667  0.0000000000000000  1.9086666666666667
  1.9086666666666667  1.9086666666666667  0.0000000000000000
