Au                                      
   1.00000000000000     
     3.6720000000000002    0.0000000000000000    0.0000000000000000
     0.0000000000000000    3.6720000000000002    0.0000000000000000
     0.0000000000000000    0.0000000000000000    3.6720000000000002
   Au
     4
Direct
  0.0000000000000000  0.0000000000000000  0.0000000000000000
  0.0000000000000000  0.5000000000000000  0.5000000000000000
  0.5000000000000000  0.0000000000000000  0.5000000000000000
  0.5000000000000000  0.5000000000000000  0.0000000000000000
 
  0.00000000E+00  0.00000000E+00  0.00000000E+00
  0.00000000E+00  0.00000000E+00  0.00000000E+00
  0.00000000E+00  0.00000000E+00  0.00000000E+00
  0.00000000E+00  0.00000000E+00  0.00000000E+00
