 $CONTRL SCFTYP= RHF RUNTYP=OPTIMIZE DFTTYP=B3LYP
       ICHARG=0 MULT=1 COORD=CART $END
 $STATPT METHOD=NR OPTTOL=0.0001 HESS=GUESS NSTEP=50 $END
 $BASIS GBASIS=N31 NGAUSS=6 NDFUNC=1 $END
 $DATA
C2H3OF
C1 1
C 6 0.00000000 0.00000000 0.00000000
C 6 1.51156500 0.19634092 -0.00035193
O 8 2.28595099 -0.73287782 0.00286977
H 1 1.90168201 1.23994378 -0.00372294
F 9 -0.63235801 1.24220318 -0.00422778
H 1 -0.29271100 -0.58021492 -0.90449733
H 1 -0.29306680 -0.57422662 0.90819609
 $END
