 O 
 1.0000000000000000
    12.0000000000000000    0.0000000000000000    0.0000000000000000
     0.0000000000000000   12.0000000000000000    0.0000000000000000
     0.0000000000000000    0.0000000000000000   12.0000000000000000
   2
Cartesian
  5.3831099999999994  6.0000000000000000  6.0000000000000000
  6.6168899999999997  6.0000000000000000  6.0000000000000000
