Pd 
 1.0000000000000000
     3.5010000000000003    0.0000000000000000    0.0000000000000000
     0.0000000000000000    3.5010000000000003    0.0000000000000000
     0.0000000000000000    0.0000000000000000    3.5010000000000003
   4
Cartesian
  0.0000000000000000  0.0000000000000000  0.0000000000000000
  0.0000000000000000  1.7505000000000002  1.7505000000000002
  1.7505000000000002  0.0000000000000000  1.7505000000000002
  1.7505000000000002  1.7505000000000002  0.0000000000000000
