 $CONTRL SCFTYP= RHF RUNTYP=OPTIMIZE DFTTYP=B3LYP 
       ICHARG=0 MULT=1 COORD=CART $END
 $STATPT METHOD=RFO OPTTOL=0.0001 HESS=GUESS NSTEP=50 $END
 $BASIS GBASIS=N31 NGAUSS=6 NDFUNC=1 $END
 $DATA
Title Geometry Optimization of Vinyl Alcohol
C1 1
C 6 0.00000000 0.00000000 0.00000000
C 6 -1.10778691 0.74408174 0.00000000
O 8 -2.39773857 0.30325825 -0.00000000
H 1 -2.39428798 -0.66855655 -0.00000000
H 1 -1.08530802 1.83064414 0.00000000
H 1 0.97454291 0.47399434 -0.00000000
H 1 -0.02820469 -1.08786806 -0.00000000 
 $END
