 $CONTRL SCFTYP= RHF RUNTYP=HESSIAN DFTTYP=B3LYP 
       ISPHER=1 MULT=1 COORD=CART $END
 $SCF DIRSCF=.TRUE. $END
 $BASIS GBASIS=N31 NGAUSS=6 NDFUNC=1 $END
 $FORCE METHOD=SEMINUM $END
 $DATA
C2H4O
CS 1

C 6 0.00000000 0.00000000 0.00000000
C 6 1.17338174 -0.63572312 0.00000000
O 8 2.41561448 -0.07389838 0.00000000
H 1 2.31918447 0.89312579 0.00000000
H 1 1.25397864 -1.71939043 0.00000000
H 1 -0.92534591 -0.56421582 0.00000000
H 1 -0.07421899 1.08564201 0.00000000
 $END
