 $CONTRL SCFTYP=RHF MPLEVL=2 RUNTYP=ENERGY 
       ICHARG=0 MULT=1 COORD=CART $END
 $BASIS GBASIS=N31 NGAUSS=6 NDFUNC=1 $END
 $DATA
C2H4O
C1 1
C 6 0.00000000 0.00000000 0.00000000
C 6 -1.17325200 0.63596300 0.00000000
O 8 -2.41559900 0.07439100 0.00000000
H 1 -2.31936600 -0.89265300 0.00000000
H 1 -1.25362800 1.71964600 0.00000000
H 1 0.92546100 0.56402800 0.00000000
H 1 0.07399800 -1.08565700 0.00000000
 $END
