Cu 
 1.0000000000000000
     3.6100000000000003    0.0000000000000000    0.0000000000000000
     0.0000000000000000    3.6100000000000003    0.0000000000000000
     0.0000000000000000    0.0000000000000000    3.6100000000000003
   4
Cartesian
  0.0000000000000000  0.0000000000000000  0.0000000000000000
  0.0000000000000000  1.8050000000000002  1.8050000000000002
  1.8050000000000002  0.0000000000000000  1.8050000000000002
  1.8050000000000002  1.8050000000000002  0.0000000000000000
