 $CONTRL SCFTYP= RHF RUNTYP=HESSIAN DFTTYP=B3LYP 
       ISPHER=1 MULT=1 COORD=CART $END
 $SCF DIRSCF=.TRUE. $END
 $BASIS GBASIS=N31 NGAUSS=6 NDFUNC=1 $END
 $FORCE METHOD=SEMINUM $END
 $DATA
C2H4O
C1 1
C 6 0.00000000 0.00000000 0.00000000
C 6 -1.25555454 0.64334424 0.06078816
O 8 -2.19054382 -0.20461074 0.30296743
H 1 -1.52708672 1.69094112 -0.10368764
H 1 0.82644838 0.40710331 -0.58149468
H 1 0.31439051 -0.39700950 0.97003873
H 1 -1.17617010 -0.96705205 0.06386890
 $END
