Cu                                      
   1.00000000000000     
     5.1420805127885743    0.0000000000000000    0.0000000000000000
     2.5710402563942871    4.4531723523798172    0.0000000000000000
     0.0000000000000000    0.0000000000000000   24.1984911575469610
   Cu
    12
Direct
  0.1666666666666643  0.1666666666666643  0.4146924375312356
  0.6666666666666643  0.1666666666666643  0.4146924375312356
  0.1666666666666643  0.6666666666666643  0.4146924375312356
  0.6666666666666643  0.6666666666666643  0.4146924375312356
  0.8333333333333357  0.3333333333333357  0.5000000000000000
  0.3333333333333357  0.3333333333333357  0.5000000000000000
  0.8333333333333357  0.8333333333333357  0.5000000000000000
  0.3333333333333357  0.8333333333333357  0.5000000000000000
 -0.0000000000000000 -0.0000000000000000  0.5853075624687645
  0.5000000000000000 -0.0000000000000000  0.5853075624687645
 -0.0000000000000000  0.5000000000000000  0.5853075624687645
  0.5000000000000000  0.5000000000000000  0.5853075624687645
 
  0.00000000E+00  0.00000000E+00  0.00000000E+00
  0.00000000E+00  0.00000000E+00  0.00000000E+00
  0.00000000E+00  0.00000000E+00  0.00000000E+00
  0.00000000E+00  0.00000000E+00  0.00000000E+00
  0.00000000E+00  0.00000000E+00  0.00000000E+00
  0.00000000E+00  0.00000000E+00  0.00000000E+00
  0.00000000E+00  0.00000000E+00  0.00000000E+00
  0.00000000E+00  0.00000000E+00  0.00000000E+00
  0.00000000E+00  0.00000000E+00  0.00000000E+00
  0.00000000E+00  0.00000000E+00  0.00000000E+00
  0.00000000E+00  0.00000000E+00  0.00000000E+00
  0.00000000E+00  0.00000000E+00  0.00000000E+00
