Pd 
 1.0000000000000000
     3.7603333333333340    0.0000000000000000    0.0000000000000000
     0.0000000000000000    3.7603333333333340    0.0000000000000000
     0.0000000000000000    0.0000000000000000    3.7603333333333340
   4
Cartesian
  0.0000000000000000  0.0000000000000000  0.0000000000000000
  0.0000000000000000  1.8801666666666670  1.8801666666666670
  1.8801666666666670  0.0000000000000000  1.8801666666666670
  1.8801666666666670  1.8801666666666670  0.0000000000000000
