Pd 
 1.0000000000000000
     4.0196666666666676    0.0000000000000000    0.0000000000000000
     0.0000000000000000    4.0196666666666676    0.0000000000000000
     0.0000000000000000    0.0000000000000000    4.0196666666666676
   4
Cartesian
  0.0000000000000000  0.0000000000000000  0.0000000000000000
  0.0000000000000000  2.0098333333333338  2.0098333333333338
  2.0098333333333338  0.0000000000000000  2.0098333333333338
  2.0098333333333338  2.0098333333333338  0.0000000000000000
