Au  O                                   
   1.00000000000000     
     5.8802999900000001    0.0000000000000000    0.0000000000000000
     2.9401500000000000    5.0924891800000003    0.0000000000000000
     0.0000000000000000    0.0000000000000000   24.8012448399999990
   Au   O 
    12     1
Direct
  0.1666666699999979  0.1666666699999979  0.4035134299999967
  0.6669862199999983  0.1660275699999971  0.4019517899999983
  0.1660275699999971  0.6669862199999983  0.4019517899999983
  0.6669862199999983  0.6669862199999983  0.4019517899999983
  0.8367635299999989  0.3316182399999974  0.4993290600000009
  0.3316182399999974  0.3316182399999974  0.4993290600000009
  0.8333333300000021  0.8333333300000021  0.5025250099999994
  0.3316182399999974  0.8367635299999989  0.4993290600000009
  0.9893110100000015  0.9893110100000015  0.6003112100000010
  0.5213779799999969  0.9893110100000015  0.6003112100000010
  0.9893110100000015  0.5213779799999969  0.6003112100000010
  0.5000000000000000  0.5000000000000000  0.5897658100000029
  0.1666666699999979  0.1666666699999979  0.6445986700000006
 
  0.00000000E+00  0.00000000E+00  0.00000000E+00
  0.00000000E+00  0.00000000E+00  0.00000000E+00
  0.00000000E+00  0.00000000E+00  0.00000000E+00
  0.00000000E+00  0.00000000E+00  0.00000000E+00
  0.00000000E+00  0.00000000E+00  0.00000000E+00
  0.00000000E+00  0.00000000E+00  0.00000000E+00
  0.00000000E+00  0.00000000E+00  0.00000000E+00
  0.00000000E+00  0.00000000E+00  0.00000000E+00
  0.00000000E+00  0.00000000E+00  0.00000000E+00
  0.00000000E+00  0.00000000E+00  0.00000000E+00
  0.00000000E+00  0.00000000E+00  0.00000000E+00
  0.00000000E+00  0.00000000E+00  0.00000000E+00
  0.00000000E+00  0.00000000E+00  0.00000000E+00
