Au  O 
 1.0000000000000000
     5.8802999900000001    0.0000000000000000    0.0000000000000000
     2.9401500000000000    5.0924891800000003    0.0000000000000000
     0.0000000000000000    0.0000000000000000   24.8012448399999990
  12   1
Cartesian
  1.4700750277348331  0.8487482136416306 10.0076353736582018
  4.4102250227316375  0.8454936038066927  9.9689047576662624
  2.9373314529437242  3.3966201085590995  9.9689047576662624
  5.8831185975291378  3.3966201085590995  9.9689047576662624
  5.8954279454273646  1.6887622990906432 12.3839822727870494
  2.9250221016918179  1.6887622990906432 12.3839822727870494
  7.3503749622651666  4.2437409663583692 12.4632458112334490
  4.4102250260853175  4.2612092227436058 12.3839822727870494
 -0.0942817017386101 -0.0544335659201282 14.8884652994066560
  3.0344316966317204 -0.0544335659201282 14.8884652994066560
  1.4700750001068901  2.6551117218402567 14.8884652994066560
  4.4102249950000001  2.5462445900000001 14.6269262520709180
  1.4700750277348331  0.8487482136416306 15.9868494382083632
