Au                                      
   1.00000000000000     
     5.8802999900000001    0.0000000000000000    0.0000000000000000
     2.9401500000000000    5.0924891800000003    0.0000000000000000
     0.0000000000000000    0.0000000000000000   24.8012448399999990
   Au
    12
Direct
  0.1666666699999979  0.1666666699999979  0.4027936000000025
  0.6666666699999979  0.1666666699999979  0.4027936000000025
  0.1666666699999979  0.6666666699999979  0.4027936000000025
  0.6666666699999979  0.6666666699999979  0.4027936000000025
  0.8333333300000021  0.3333333300000021  0.5000000000000000
  0.3333333300000021  0.3333333300000021  0.5000000000000000
  0.8333333300000021  0.8333333300000021  0.5000000000000000
  0.3333333300000021  0.8333333300000021  0.5000000000000000
  0.0000000000000000  0.0000000000000000  0.5972063999999975
  0.5000000000000000  0.0000000000000000  0.5972063999999975
  0.0000000000000000  0.5000000000000000  0.5972063999999975
  0.5000000000000000  0.5000000000000000  0.5972063999999975
 
  0.00000000E+00  0.00000000E+00  0.00000000E+00
  0.00000000E+00  0.00000000E+00  0.00000000E+00
  0.00000000E+00  0.00000000E+00  0.00000000E+00
  0.00000000E+00  0.00000000E+00  0.00000000E+00
  0.00000000E+00  0.00000000E+00  0.00000000E+00
  0.00000000E+00  0.00000000E+00  0.00000000E+00
  0.00000000E+00  0.00000000E+00  0.00000000E+00
  0.00000000E+00  0.00000000E+00  0.00000000E+00
  0.00000000E+00  0.00000000E+00  0.00000000E+00
  0.00000000E+00  0.00000000E+00  0.00000000E+00
  0.00000000E+00  0.00000000E+00  0.00000000E+00
  0.00000000E+00  0.00000000E+00  0.00000000E+00
