Au 
 1.0000000000000000
     5.8802999900000001    0.0000000000000000    0.0000000000000000
     2.9401500000000000    5.0924891800000003    0.0000000000000000
     0.0000000000000000    0.0000000000000000   24.8012448399999990
  12
Cartesian
  1.4700750277348331  0.8487482136416306  9.9897826935850222
  4.4102250227348332  0.8487482136416306  9.9897826935850222
  2.9401500277348331  3.3949928036416308  9.9897826935850222
  5.8803000227348337  3.3949928036416308  9.9897826935850222
  5.8802999622651670  1.6974963763583695 12.4006224199999995
  2.9401499672651665  1.6974963763583695 12.4006224199999995
  7.3503749622651666  4.2437409663583692 12.4006224199999995
  4.4102249672651670  4.2437409663583692 12.4006224199999995
  0.0000000000000000  0.0000000000000000 14.8114621464149767
  2.9401499950000001  0.0000000000000000 14.8114621464149767
  1.4700750000000000  2.5462445900000001 14.8114621464149767
  4.4102249950000001  2.5462445900000001 14.8114621464149767
