Pd 
 1.0000000000000000
     3.8900000000000006    0.0000000000000000    0.0000000000000000
     0.0000000000000000    3.8900000000000006    0.0000000000000000
     0.0000000000000000    0.0000000000000000    3.8900000000000006
   4
Cartesian
  0.0000000000000000  0.0000000000000000  0.0000000000000000
  0.0000000000000000  1.9450000000000003  1.9450000000000003
  1.9450000000000003  0.0000000000000000  1.9450000000000003
  1.9450000000000003  1.9450000000000003  0.0000000000000000
