 O 
 1.0000000000000000
    12.0000000000000000    0.0000000000000000    0.0000000000000000
     0.0000000000000000   12.0000000000000000    0.0000000000000000
     0.0000000000000000    0.0000000000000000   12.0000000000000000
   2
Cartesian
  5.3750000000000000  6.0000000000000000  6.0000000000000000
  6.6250000000000000  6.0000000000000000  6.0000000000000000
