 $CONTRL SCFTYP=RHF MPLEVL=2 RUNTYP=ENERGY 
       ICHARG=0 MULT=1 COORD=CART $END
 $BASIS GBASIS=N31 NGAUSS=6 NDFUNC=1 $END
 $DATA
C2H4O
C1 1
C 6 0.00000000 0.00000000 0.00000000
C 6 -1.19623400 -0.74718700 -0.06885300
O 8 -2.22057700 0.02757400 -0.02037800
H 1 -1.35817500 -1.82898300 -0.11048900
H 1 0.92323400 -0.42836600 0.38862200
H 1 0.15706400 0.62147700 -0.88686600
H 1 -1.25031000 0.82764100 0.27272900
 $END
