<metadata>
    // Radius values
    radMin = 1.0;
    radMax = 1.5;

    // Angle values
    angMin = 170.0;
    angMax = 190.0;

    // Algorithm Parameters 
    nSteps = 10;
</metadata>

<data>
    <GAMESS>
         $CONTRL COORD=ZMT RUNTYP=ENERGY DFTTYP=B3LYP ISPHER=1 MULT=1 $END
         $BASIS GBASIS=N31 NGAUSS=6 NDFUNC=1 $END
         $DATA 
        Title CO2 single-point calculation template with Z-Matrix
        C1
        C    
        O 1 RAD 
        O 1 RAD 2 ANG
         $END		 
    </GAMESS>
</data>
