Au 
 1.0000000000000000
     3.9440000000000004    0.0000000000000000    0.0000000000000000
     0.0000000000000000    3.9440000000000004    0.0000000000000000
     0.0000000000000000    0.0000000000000000    3.9440000000000004
   4
Cartesian
  0.0000000000000000  0.0000000000000000  0.0000000000000000
  0.0000000000000000  1.9720000000000002  1.9720000000000002
  1.9720000000000002  0.0000000000000000  1.9720000000000002
  1.9720000000000002  1.9720000000000002  0.0000000000000000
