 $CONTRL SCFTYP= RHF RUNTYP=OPTIMIZE DFTTYP=B3LYP
       ICHARG=0 MULT=1 COORD=CART $END
 $STATPT METHOD=NR OPTTOL=0.0001 HESS=GUESS NSTEP=50 $END
 $BASIS GBASIS=N31 NGAUSS=6 NDFUNC=1 $END
 $DATA
Title Geometry Optimization of Acetaldehyde
C1 1
C 6 0.00000000 0.00000000 0.00000000
C 6 -1.39294909 0.57951361 -0.00009298
O 8 -2.41184472 -0.07447832 -0.00020985
H 1 -1.43544365 1.69328369 -0.00004837
H 1 -0.03949399 -1.09196410 0.00007485
F 9 0.55129871 0.35520626 -0.88116272
H 1 0.55140443 0.35522553 0.88105976 
 $END
