 $CONTRL SCFTYP=RHF MPLEVL=2 RUNTYP=ENERGY 
       ICHARG=0 MULT=1 COORD=CART $END
 $BASIS GBASIS=N31 NGAUSS=6 NDFUNC=1 $END
 $DATA
Title Single Point Energy Calculation of Acetaldehyde
C1 1
C 6 0.00000000 0.00000000 0.00000000
C 6 -1.39107184 0.58400542 0.00001130
O 8 -2.41207250 -0.06669530 -0.00000318
H 1 -1.42997222 1.69790682 0.00003254
H 1 -0.04301737 -1.09183097 0.00010466
H 1 0.55236712 0.35340436 -0.88121815
H 1 0.55262272 0.35346549 0.88100431
 $END
