Ag 
 1.0000000000000000
     4.4990000000000006    0.0000000000000000    0.0000000000000000
     0.0000000000000000    4.4990000000000006    0.0000000000000000
     0.0000000000000000    0.0000000000000000    4.4990000000000006
   4
Cartesian
  0.0000000000000000  0.0000000000000000  0.0000000000000000
  0.0000000000000000  2.2495000000000003  2.2495000000000003
  2.2495000000000003  0.0000000000000000  2.2495000000000003
  2.2495000000000003  2.2495000000000003  0.0000000000000000
