Cu 
 1.0000000000000000
     3.3693333333333335    0.0000000000000000    0.0000000000000000
     0.0000000000000000    3.3693333333333335    0.0000000000000000
     0.0000000000000000    0.0000000000000000    3.3693333333333335
   4
Cartesian
  0.0000000000000000  0.0000000000000000  0.0000000000000000
  0.0000000000000000  1.6846666666666668  1.6846666666666668
  1.6846666666666668  0.0000000000000000  1.6846666666666668
  1.6846666666666668  1.6846666666666668  0.0000000000000000
