Cu 
 1.0000000000000000
     3.8506666666666667    0.0000000000000000    0.0000000000000000
     0.0000000000000000    3.8506666666666667    0.0000000000000000
     0.0000000000000000    0.0000000000000000    3.8506666666666667
   4
Cartesian
  0.0000000000000000  0.0000000000000000  0.0000000000000000
  0.0000000000000000  1.9253333333333333  1.9253333333333333
  1.9253333333333333  0.0000000000000000  1.9253333333333333
  1.9253333333333333  1.9253333333333333  0.0000000000000000
