Au 
 1.0000000000000000
     4.2160000000000002    0.0000000000000000    0.0000000000000000
     0.0000000000000000    4.2160000000000002    0.0000000000000000
     0.0000000000000000    0.0000000000000000    4.2160000000000002
   4
Cartesian
  0.0000000000000000  0.0000000000000000  0.0000000000000000
  0.0000000000000000  2.1080000000000001  2.1080000000000001
  2.1080000000000001  0.0000000000000000  2.1080000000000001
  2.1080000000000001  2.1080000000000001  0.0000000000000000
