Ag                                      
   1.00000000000000     
     5.8647436400000004    0.0000000000000000    0.0000000000000000
     2.9323718200000002    5.0790169799999996    0.0000000000000000
     0.0000000000000000    0.0000000000000000   24.7885431300000008
   Ag
    12
Direct
  0.1666666699999979  0.1666666699999979  0.4039883399999979
  0.6666666699999979  0.1666666699999979  0.4039883399999979
  0.1666666699999979  0.6666666699999979  0.4039883399999979
  0.6666666699999979  0.6666666699999979  0.4039883399999979
  0.8333333300000021  0.3333333300000021  0.5000000000000000
  0.3333333300000021  0.3333333300000021  0.5000000000000000
  0.8333333300000021  0.8333333300000021  0.5000000000000000
  0.3333333300000021  0.8333333300000021  0.5000000000000000
  0.0000000000000000  0.0000000000000000  0.5960116600000021
  0.5000000000000000  0.0000000000000000  0.5960116600000021
  0.0000000000000000  0.5000000000000000  0.5960116600000021
  0.5000000000000000  0.5000000000000000  0.5960116600000021
 
  0.00000000E+00  0.00000000E+00  0.00000000E+00
  0.00000000E+00  0.00000000E+00  0.00000000E+00
  0.00000000E+00  0.00000000E+00  0.00000000E+00
  0.00000000E+00  0.00000000E+00  0.00000000E+00
  0.00000000E+00  0.00000000E+00  0.00000000E+00
  0.00000000E+00  0.00000000E+00  0.00000000E+00
  0.00000000E+00  0.00000000E+00  0.00000000E+00
  0.00000000E+00  0.00000000E+00  0.00000000E+00
  0.00000000E+00  0.00000000E+00  0.00000000E+00
  0.00000000E+00  0.00000000E+00  0.00000000E+00
  0.00000000E+00  0.00000000E+00  0.00000000E+00
  0.00000000E+00  0.00000000E+00  0.00000000E+00
