Ag 
 1.0000000000000000
     5.8647436400000004    0.0000000000000000    0.0000000000000000
     2.9323718200000002    5.0790169799999996    0.0000000000000000
     0.0000000000000000    0.0000000000000000   24.7885431300000008
  12
Cartesian
  1.4661859393237182  0.8465028469300565 10.0142823901071054
  4.3985577593237188  0.8465028469300565 10.0142823901071054
  2.9323718493237183  3.3860113369300562 10.0142823901071054
  5.8647436693237189  3.3860113369300562 10.0142823901071054
  5.8647436106762818  1.6930056430699432 12.3942715650000004
  2.9323717906762816  1.6930056430699432 12.3942715650000004
  7.3309295206762819  4.2325141330699427 12.3942715650000004
  4.3985577006762817  4.2325141330699427 12.3942715650000004
  0.0000000000000000  0.0000000000000000 14.7742607398928971
  2.9323718200000002  0.0000000000000000 14.7742607398928971
  1.4661859100000001  2.5395084899999998 14.7742607398928971
  4.3985577300000003  2.5395084899999998 14.7742607398928971
