Au                                      
   1.00000000000000     
     4.4880000000000004    0.0000000000000000    0.0000000000000000
     0.0000000000000000    4.4880000000000004    0.0000000000000000
     0.0000000000000000    0.0000000000000000    4.4880000000000004
   Au
     4
Direct
  0.0000000000000000  0.0000000000000000  0.0000000000000000
  0.0000000000000000  0.5000000000000000  0.5000000000000000
  0.5000000000000000  0.0000000000000000  0.5000000000000000
  0.5000000000000000  0.5000000000000000  0.0000000000000000
 
  0.00000000E+00  0.00000000E+00  0.00000000E+00
  0.00000000E+00  0.00000000E+00  0.00000000E+00
  0.00000000E+00  0.00000000E+00  0.00000000E+00
  0.00000000E+00  0.00000000E+00  0.00000000E+00
