Au 
 1.0000000000000000
     4.4880000000000004    0.0000000000000000    0.0000000000000000
     0.0000000000000000    4.4880000000000004    0.0000000000000000
     0.0000000000000000    0.0000000000000000    4.4880000000000004
   4
Cartesian
  0.0000000000000000  0.0000000000000000  0.0000000000000000
  0.0000000000000000  2.2440000000000002  2.2440000000000002
  2.2440000000000002  0.0000000000000000  2.2440000000000002
  2.2440000000000002  2.2440000000000002  0.0000000000000000
