 $CONTRL SCFTYP=RHF MPLEVL=2 RUNTYP=ENERGY 
       ICHARG=0 MULT=1 COORD=CART $END
 $BASIS GBASIS=N31 NGAUSS=6 NDFUNC=1 $END
 $DATA
Title Single Point Energy Calculation of Vinyl Alcohol
C1 1
C 6 0.00000000 0.00000000 0.00000000
C 6 1.17335161 -0.63571529 0.00004703
O 8 2.41548533 -0.07379898 0.00008756
H 1 2.31876422 0.89322338 -0.00009738
H 1 1.25409326 -1.71942119 0.00003008
H 1 -0.92547757 -0.56396200 -0.00001886
H 1 -0.07390279 1.08567115 0.00003125
 $END

