 $CONTRL SCFTYP= RHF RUNTYP=OPTIMIZE DFTTYP=B3LYP 
       ICHARG=0 MULT=1 COORD=CART $END
 $STATPT METHOD=QA OPTTOL=0.0001 HESS=GUESS NSTEP=50 $END
 $BASIS GBASIS=N31 NGAUSS=6 NDFUNC=1 $END
 $DATA
Title Geometry Optimization of Vinyl Alcohol
C1 1
C 6 0.00000000 0.00000000 0.00000000
C 6 1.30898168 0.00692583 0.00000000
O 8 2.05209806 1.30991395 0.00000000
H 1 1.52229422 2.21645016 0.00000000
H 1 1.85896852 -0.93414509 0.00000000
H 1 -0.53999790 -0.94683803 0.00000000
H 1 -0.54998684 0.94107092 0.00000000 
 $END
