Au                                      
   1.00000000000000     
     5.8802999923473305    0.0000000000000000    0.0000000000000000
     2.9401499961736652    5.0924891752462269    0.0000000000000000
     0.0000000000000000    0.0000000000000000   24.8012448385809279
   Au
    12
Direct
  0.1666666666666643  0.1666666666666643  0.4027935988728850
  0.6666666666666643  0.1666666666666643  0.4027935988728850
  0.1666666666666643  0.6666666666666643  0.4027935988728850
  0.6666666666666643  0.6666666666666643  0.4027935988728850
  0.8333333333333357  0.3333333333333357  0.5000000000000000
  0.3333333333333357  0.3333333333333357  0.5000000000000000
  0.8333333333333357  0.8333333333333357  0.5000000000000000
  0.3333333333333357  0.8333333333333357  0.5000000000000000
 -0.0000000000000000  0.0000000000000000  0.5972064011271151
  0.5000000000000000 -0.0000000000000000  0.5972064011271151
 -0.0000000000000000  0.5000000000000000  0.5972064011271151
  0.5000000000000000  0.5000000000000000  0.5972064011271151
 
  0.00000000E+00  0.00000000E+00  0.00000000E+00
  0.00000000E+00  0.00000000E+00  0.00000000E+00
  0.00000000E+00  0.00000000E+00  0.00000000E+00
  0.00000000E+00  0.00000000E+00  0.00000000E+00
  0.00000000E+00  0.00000000E+00  0.00000000E+00
  0.00000000E+00  0.00000000E+00  0.00000000E+00
  0.00000000E+00  0.00000000E+00  0.00000000E+00
  0.00000000E+00  0.00000000E+00  0.00000000E+00
  0.00000000E+00  0.00000000E+00  0.00000000E+00
  0.00000000E+00  0.00000000E+00  0.00000000E+00
  0.00000000E+00  0.00000000E+00  0.00000000E+00
  0.00000000E+00  0.00000000E+00  0.00000000E+00
