Pd 
 1.0000000000000000
     4.1493333333333338    0.0000000000000000    0.0000000000000000
     0.0000000000000000    4.1493333333333338    0.0000000000000000
     0.0000000000000000    0.0000000000000000    4.1493333333333338
   4
Cartesian
  0.0000000000000000  0.0000000000000000  0.0000000000000000
  0.0000000000000000  2.0746666666666669  2.0746666666666669
  2.0746666666666669  0.0000000000000000  2.0746666666666669
  2.0746666666666669  2.0746666666666669  0.0000000000000000
