Au  O                                   
   1.00000000000000     
     5.8802999923473305    0.0000000000000000    0.0000000000000000
     2.9401499961736652    5.0924891752462269    0.0000000000000000
     0.0000000000000000    0.0000000000000000   24.8012448385809279
   Au   O 
    12     1
Direct
  0.1666666666666643  0.1666666666666643  0.4035134338877260
  0.6669862151832633  0.1660275696334661  0.4019517905601020
  0.1660275696334661  0.6669862151832633  0.4019517905601020
  0.6669862151832633  0.6669862151832633  0.4019517905601020
  0.8367635287497489  0.3316182356251291  0.4993290600030778
  0.3316182356251291  0.3316182356251291  0.4993290600030778
  0.8333333333333357  0.8333333333333357  0.5025250113843874
  0.3316182356251291  0.8367635287497489  0.4993290600030778
 -0.0106889883731747 -0.0106889883731747  0.6003112108870791
  0.5213779767463496 -0.0106889883731747  0.6003112108870791
 -0.0106889883731747  0.5213779767463496  0.6003112108870791
  0.5000000000000000  0.5000000000000000  0.5897658051607441
  0.1666666666666643  0.1666666666666643  0.6445986658109198
 
  0.00000000E+00  0.00000000E+00  0.00000000E+00
  0.00000000E+00  0.00000000E+00  0.00000000E+00
  0.00000000E+00  0.00000000E+00  0.00000000E+00
  0.00000000E+00  0.00000000E+00  0.00000000E+00
  0.00000000E+00  0.00000000E+00  0.00000000E+00
  0.00000000E+00  0.00000000E+00  0.00000000E+00
  0.00000000E+00  0.00000000E+00  0.00000000E+00
  0.00000000E+00  0.00000000E+00  0.00000000E+00
  0.00000000E+00  0.00000000E+00  0.00000000E+00
  0.00000000E+00  0.00000000E+00  0.00000000E+00
  0.00000000E+00  0.00000000E+00  0.00000000E+00
  0.00000000E+00  0.00000000E+00  0.00000000E+00
  0.00000000E+00  0.00000000E+00  0.00000000E+00
