Au  O 
 1.0000000000000000
     5.8802999923473305    0.0000000000000000    0.0000000000000000
     2.9401499961736652    5.0924891752462269    0.0000000000000000
     0.0000000000000000    0.0000000000000000   24.8012448385809279
  12   1
Cartesian
  1.4700749980868326  0.8487481958743711 10.0000000000000000
  4.4102249942604974  0.8487481958743711 10.0000000000000000
  2.9401499961736652  3.3949927834974845 10.0000000000000000
  5.8802999923473305  3.3949927834974845 10.0000000000000000
  0.0000000000000000  1.6974963917487422 12.4006224192904639
  2.9401499961736657  1.6974963917487422 12.4006224192904639
  1.4700749980868324  4.2437409793718555 12.4006224192904639
  4.4102249942604983  4.2437409793718555 12.4006224192904639
  0.0000000000000000  0.0000000000000000 14.8012448385809279
  2.9401499961736652  0.0000000000000000 14.8012448385809279
  1.4700749980868326  2.5462445876231135 14.8012448385809279
  4.4102249942604974  2.5462445876231135 14.8012448385809279
  1.4700749980868326  0.8487481958743711 16.0012448385809272
