Pd 
 1.0000000000000000
     3.6306666666666669    0.0000000000000000    0.0000000000000000
     0.0000000000000000    3.6306666666666669    0.0000000000000000
     0.0000000000000000    0.0000000000000000    3.6306666666666669
   4
Cartesian
  0.0000000000000000  0.0000000000000000  0.0000000000000000
  0.0000000000000000  1.8153333333333335  1.8153333333333335
  1.8153333333333335  0.0000000000000000  1.8153333333333335
  1.8153333333333335  1.8153333333333335  0.0000000000000000
