Ag                                      
   1.00000000000000     
     5.8647436431612263    0.0000000000000000    0.0000000000000000
     2.9323718215806132    5.0790169816609199    0.0000000000000000
     0.0000000000000000    0.0000000000000000   24.7885431326587558
   Ag
    12
Direct
  0.1666666666666643  0.1666666666666643  0.4039883435708116
  0.6666666666666643  0.1666666666666643  0.4039883435708116
  0.1666666666666643  0.6666666666666643  0.4039883435708116
  0.6666666666666643  0.6666666666666643  0.4039883435708116
  0.8333333333333357  0.3333333333333357  0.5000000000000000
  0.3333333333333357  0.3333333333333357  0.5000000000000000
  0.8333333333333357  0.8333333333333357  0.5000000000000000
  0.3333333333333357  0.8333333333333357  0.5000000000000000
  0.0000000000000000  0.0000000000000000  0.5960116564291884
  0.5000000000000000  0.0000000000000000  0.5960116564291884
  0.0000000000000000  0.5000000000000000  0.5960116564291884
  0.5000000000000000  0.5000000000000000  0.5960116564291884
 
  0.00000000E+00  0.00000000E+00  0.00000000E+00
  0.00000000E+00  0.00000000E+00  0.00000000E+00
  0.00000000E+00  0.00000000E+00  0.00000000E+00
  0.00000000E+00  0.00000000E+00  0.00000000E+00
  0.00000000E+00  0.00000000E+00  0.00000000E+00
  0.00000000E+00  0.00000000E+00  0.00000000E+00
  0.00000000E+00  0.00000000E+00  0.00000000E+00
  0.00000000E+00  0.00000000E+00  0.00000000E+00
  0.00000000E+00  0.00000000E+00  0.00000000E+00
  0.00000000E+00  0.00000000E+00  0.00000000E+00
  0.00000000E+00  0.00000000E+00  0.00000000E+00
  0.00000000E+00  0.00000000E+00  0.00000000E+00
