Ag 
 1.0000000000000000
     5.8647436431612263    0.0000000000000000    0.0000000000000000
     2.9323718215806132    5.0790169816609199    0.0000000000000000
     0.0000000000000000    0.0000000000000000   24.7885431326587558
  12
Cartesian
  1.4661859107903066  0.8465028302768199 10.0000000000000000
  4.3985577323709197  0.8465028302768199 10.0000000000000000
  2.9323718215806132  3.3860113211072798 10.0000000000000000
  5.8647436431612263  3.3860113211072798 10.0000000000000000
  0.0000000000000000  1.6930056605536399 12.3942715663293779
  2.9323718215806136  1.6930056605536399 12.3942715663293779
  1.4661859107903064  4.2325141513840991 12.3942715663293779
  4.3985577323709197  4.2325141513840991 12.3942715663293779
  0.0000000000000000  0.0000000000000000 14.7885431326587558
  2.9323718215806132  0.0000000000000000 14.7885431326587558
  1.4661859107903066  2.5395084908304599 14.7885431326587558
  4.3985577323709197  2.5395084908304599 14.7885431326587558
