INCAR created by Atomic Simulation Environment
 SIGMA = 0.01
 ENCUT = 200
 LCHARG = .FALSE.
 LWAVE = .FALSE.
 ISMEAR = 0
